words_hard_train/4930.qaiger
aag 86 16 0 1 70
2
4
8
16
26
34
46
54
60
68
94
96
104
108
116
142
172
6 2 4
10 4 8
12 5 9
14 11 13
18 14 16
20 7 19
22 15 17
24 21 23
28 13 26
30 12 27
32 29 31
36 33 35
38 32 34
40 37 39
42 24 40
44 43 39
48 31 46
50 30 47
52 49 51
56 52 54
58 44 57
62 51 60
64 50 61
66 63 65
70 67 69
72 66 68
74 71 73
76 58 75
78 3 5
80 79 7
82 25 41
84 83 43
86 80 85
88 19 23
90 86 89
92 77 90
98 94 97
100 95 96
102 99 101
106 64 105
110 107 108
112 106 109
114 111 113
118 114 116
120 119 113
122 103 120
124 92 123
126 53 55
128 74 127
130 124 129
132 127 57
134 45 133
136 130 135
138 65 104
140 139 107
144 141 143
146 115 117
148 145 147
150 148 119
152 140 142
154 145 153
156 155 72
158 151 157
160 102 121
162 158 161
164 147 119
166 73 165
168 166 153
170 162 169
172 136 170
i0 2 y2[0]
i1 1 x1[0]
i2 1 x1[1]
i3 2 y2[1]
i4 1 x1[2]
i5 2 y2[2]
i6 1 x1[3]
i7 2 y2[3]
i8 1 x1[4]
i9 2 y2[4]
i10 2 y2[7]
i11 1 x1[7]
i12 1 x1[5]
i13 1 x1[6]
i14 2 y2[6]
i15 2 y2[5]
o0 bool[0]
c
simplified
  ==
    subtract
      1
      reverse
        -244
    subtract
      2 y2
      1 x1
