words_hard_train/4930.qaiger.qdimacs
p cnf 86 211
a 2 4 13 48 52 54 23 30 0
e 1 3 5 6 7 8 9 10 11 12 14 15 16 17 18 19 20 21 22 24 25 26 27 28 29 31 32 33 34 35 36 37 38 39 40 41 42 43 44 45 46 47 49 50 51 53 55 56 57 58 59 60 61 62 63 64 65 66 67 68 69 70 71 72 73 74 75 76 77 78 79 80 81 82 83 84 85 86 0
-1 -2 3 0
1 -3 0
2 -3 0
-2 -4 5 0
2 -5 0
4 -5 0
2 4 6 0
-2 -6 0
-4 -6 0
5 6 7 0
-5 -7 0
-6 -7 0
-7 -8 9 0
7 -9 0
8 -9 0
3 9 10 0
-3 -10 0
-9 -10 0
7 8 11 0
-7 -11 0
-8 -11 0
10 11 12 0
-10 -12 0
-11 -12 0
6 -13 14 0
-6 -14 0
13 -14 0
-6 13 15 0
6 -15 0
-13 -15 0
14 15 16 0
-14 -16 0
-15 -16 0
16 17 18 0
-16 -18 0
-17 -18 0
-16 -17 19 0
16 -19 0
17 -19 0
18 19 20 0
-18 -20 0
-19 -20 0
-12 -20 21 0
12 -21 0
20 -21 0
21 19 22 0
-21 -22 0
-19 -22 0
15 -23 24 0
-15 -24 0
23 -24 0
-15 23 25 0
15 -25 0
-23 -25 0
24 25 26 0
-24 -26 0
-25 -26 0
-26 -27 28 0
26 -28 0
27 -28 0
-22 28 29 0
22 -29 0
-28 -29 0
25 -30 31 0
-25 -31 0
30 -31 0
-25 30 32 0
25 -32 0
-30 -32 0
31 32 33 0
-31 -33 0
-32 -33 0
33 34 35 0
-33 -35 0
-34 -35 0
-33 -34 36 0
33 -36 0
34 -36 0
35 36 37 0
-35 -37 0
-36 -37 0
-29 37 38 0
29 -38 0
-37 -38 0
1 2 39 0
-1 -39 0
-2 -39 0
39 3 40 0
-39 -40 0
-3 -40 0
12 20 41 0
-12 -41 0
-20 -41 0
41 21 42 0
-41 -42 0
-21 -42 0
-40 42 43 0
40 -43 0
-42 -43 0
9 11 44 0
-9 -44 0
-11 -44 0
-43 44 45 0
43 -45 0
-44 -45 0
38 -45 46 0
-38 -46 0
45 -46 0
-47 48 49 0
47 -49 0
-48 -49 0
47 -48 50 0
-47 -50 0
48 -50 0
49 50 51 0
-49 -51 0
-50 -51 0
-32 52 53 0
32 -53 0
-52 -53 0
53 -54 55 0
-53 -55 0
54 -55 0
-53 54 56 0
53 -56 0
-54 -56 0
55 56 57 0
-55 -57 0
-56 -57 0
-57 -58 59 0
57 -59 0
58 -59 0
59 56 60 0
-59 -60 0
-56 -60 0
51 -60 61 0
-51 -61 0
60 -61 0
-46 61 62 0
46 -62 0
-61 -62 0
26 27 63 0
-26 -63 0
-27 -63 0
-37 63 64 0
37 -64 0
-63 -64 0
-62 64 65 0
62 -65 0
-64 -65 0
63 28 66 0
-63 -66 0
-28 -66 0
22 66 67 0
-22 -67 0
-66 -67 0
-65 67 68 0
65 -68 0
-67 -68 0
32 -52 69 0
-32 -69 0
52 -69 0
69 53 70 0
-69 -70 0
-53 -70 0
70 71 72 0
-70 -72 0
-71 -72 0
57 58 73 0
-57 -73 0
-58 -73 0
72 73 74 0
-72 -74 0
-73 -74 0
-74 59 75 0
74 -75 0
-59 -75 0
-70 -71 76 0
70 -76 0
71 -76 0
72 76 77 0
-72 -77 0
-76 -77 0
77 -36 78 0
-77 -78 0
36 -78 0
75 78 79 0
-75 -79 0
-78 -79 0
-51 60 80 0
51 -80 0
-60 -80 0
-79 80 81 0
79 -81 0
-80 -81 0
73 59 82 0
-73 -82 0
-59 -82 0
36 82 83 0
-36 -83 0
-82 -83 0
-83 76 84 0
83 -84 0
-76 -84 0
-81 84 85 0
81 -85 0
-84 -85 0
-68 -85 86 0
68 -86 0
85 -86 0
86 0
